SDVRP instances/custom_instances/p02_4_splitx10_0.vrp
NAME:p02_4_splitx10_
BEST_KNOWN: 0
COMMENT: 0
DIMENSION: 363
CAPACITY: 1400
EDGE_WEIGHT_FORMAT: FUNCTION
EDGE_WEIGHT_TYPE: EXACT_2D
NODE_COORD_SECTION
1 0.00000 0.00000
2 41 45
3 41 45
4 41 45
5 41 45
6 41 45
7 41 45
8 29 -33
9 29 -33
10 29 -33
11 29 -33
12 29 -33
13 29 -33
14 29 -33
15 -40 -29
16 -40 -29
17 -40 -29
18 43 25
19 43 25
20 34 -34
21 34 -34
22 34 -34
23 44 33
24 44 33
25 44 33
26 18 25
27 18 25
28 18 25
29 18 25
30 18 25
31 -1 -27
32 -1 -27
33 -1 -27
34 -1 -27
35 -1 -27
36 -1 -27
37 -1 -27
38 -31 41
39 -31 41
40 -31 41
41 -31 41
42 -31 41
43 -41 -8
44 -41 -8
45 15 12
46 15 12
47 15 12
48 47 39
49 47 39
50 47 39
51 47 39
52 47 39
53 47 39
54 47 39
55 -20 19
56 -20 19
57 -20 19
58 -20 19
59 30 10
60 30 10
61 30 10
62 30 10
63 30 10
64 30 10
65 30 10
66 30 10
67 -26 -21
68 -26 -21
69 -26 -21
70 -26 -21
71 -26 -21
72 -26 -21
73 -38 50
74 -38 50
75 -38 50
76 -38 50
77 -38 50
78 -38 50
79 -38 50
80 -39 -50
81 -39 -50
82 -39 -50
83 -39 -50
84 -39 -50
85 -39 -50
86 -39 -50
87 49 -4
88 49 -4
89 49 -4
90 49 -4
91 49 -4
92 4 48
93 4 48
94 4 48
95 4 48
96 4 48
97 4 48
98 -32 16
99 -32 16
100 -32 16
101 -32 16
102 -32 16
103 40 -42
104 40 -42
105 40 -42
106 40 -42
107 -36 12
108 -36 12
109 -36 12
110 -36 12
111 -36 12
112 -36 12
113 -30 -1
114 -30 -1
115 -30 -1
116 -30 -1
117 34 -29
118 34 -29
119 34 -29
120 34 -29
121 34 -29
122 34 -29
123 34 -29
124 -38 23
125 -38 23
126 -38 23
127 21 -1
128 21 -1
129 17 25
130 17 25
131 17 25
132 17 25
133 17 25
134 17 25
135 -7 16
136 -7 16
137 -7 16
138 -7 16
139 -7 16
140 -1 -20
141 -1 -20
142 48 -28
143 48 -28
144 48 -28
145 48 -28
146 48 -28
147 48 -28
148 48 -28
149 -41 34
150 -41 34
151 -41 34
152 -41 34
153 -41 34
154 -41 34
155 -33 36
156 -33 36
157 -33 36
158 -33 36
159 6 47
160 6 47
161 6 47
162 6 47
163 6 47
164 46 -47
165 46 -47
166 46 -47
167 46 -47
168 -18 -18
169 -18 -18
170 -18 -18
171 -18 -18
172 -18 -18
173 -18 -18
174 36 -12
175 36 -12
176 36 -12
177 45 -42
178 45 -42
179 45 -42
180 45 -42
181 -15 9
182 -15 9
183 -15 9
184 45 34
185 -25 0
186 -25 0
187 -25 0
188 -25 0
189 -25 0
190 -25 0
191 -25 0
192 -6 31
193 -6 31
194 -6 31
195 -6 31
196 -6 31
197 -6 31
198 -6 31
199 -44 -19
200 -44 -19
201 -44 -19
202 -44 -19
203 -44 -19
204 -44 -19
205 -44 -19
206 13 -38
207 13 -38
208 13 -38
209 13 -38
210 13 -38
211 13 -38
212 -48 -17
213 -48 -17
214 -48 -17
215 -48 -17
216 -26 11
217 -26 11
218 -26 11
219 -26 11
220 -26 11
221 -14 -34
222 -14 -34
223 -14 -34
224 -23 -30
225 -23 -30
226 -23 -30
227 -23 -30
228 -23 -30
229 -23 -30
230 21 31
231 21 31
232 21 31
233 21 31
234 21 31
235 49 -25
236 49 -25
237 49 -25
238 49 -25
239 49 -25
240 49 -25
241 49 -25
242 19 21
243 19 21
244 19 21
245 19 21
246 19 21
247 19 21
248 19 21
249 19 21
250 -16 -7
251 -16 -7
252 -16 -7
253 -16 -7
254 -16 -7
255 -16 -7
256 -16 -7
257 -16 -40
258 -16 -40
259 -16 -40
260 -16 -40
261 34 11
262 34 11
263 34 11
264 34 11
265 9 -22
266 9 -22
267 9 -22
268 9 -22
269 9 -22
270 9 -22
271 9 -22
272 33 0
273 33 0
274 33 0
275 33 0
276 33 0
277 14 -17
278 14 -17
279 14 -17
280 10 32
281 10 32
282 -28 14
283 -28 14
284 -14 49
285 -14 49
286 -14 49
287 -14 49
288 27 37
289 27 37
290 27 37
291 27 37
292 -29 -50
293 -29 -50
294 -29 -50
295 -29 -50
296 -29 -50
297 -30 42
298 -30 42
299 -14 36
300 -14 36
301 -14 36
302 -14 36
303 -14 36
304 -14 36
305 -10 8
306 -10 8
307 -10 8
308 -10 8
309 30 -22
310 30 -22
311 30 -22
312 30 -22
313 -25 -18
314 -25 -18
315 -25 -18
316 -25 -18
317 -25 -18
318 -25 -18
319 -25 -18
320 40 -43
321 40 -43
322 40 -43
323 40 -43
324 40 -43
325 40 -43
326 24 47
327 24 47
328 24 47
329 24 47
330 24 47
331 24 47
332 9 -7
333 9 -7
334 9 -7
335 9 -7
336 9 -7
337 9 -7
338 48 -7
339 48 -7
340 48 -7
341 48 -7
342 48 -7
343 48 -7
344 48 -7
345 8 45
346 8 45
347 -12 12
348 -12 12
349 -12 12
350 -12 12
351 -12 12
352 -12 12
353 -12 12
354 -10 -24
355 -10 -24
356 -10 -24
357 -10 -24
358 -20 -50
359 -20 -50
360 -42 41
361 -42 41
362 -42 41
363 -42 41
DEMAND_SECTION
1 0
2 140
3 70
4 14
5 14
6 14
7 8
8 280
9 140
10 14
11 14
12 14
13 14
14 4
15 280
16 280
17 10
18 280
19 10
20 280
21 280
22 70
23 280
24 140
25 70
26 280
27 140
28 70
29 14
30 6
31 280
32 280
33 70
34 14
35 14
36 14
37 8
38 280
39 140
40 14
41 14
42 2
43 280
44 140
45 280
46 280
47 70
48 280
49 280
50 14
51 14
52 14
53 14
54 4
55 140
56 14
57 14
58 2
59 280
60 280
61 70
62 14
63 14
64 14
65 14
66 4
67 280
68 280
69 70
70 14
71 14
72 2
73 280
74 280
75 14
76 14
77 14
78 14
79 4
80 140
81 70
82 14
83 14
84 14
85 14
86 4
87 280
88 140
89 14
90 14
91 2
92 280
93 140
94 70
95 14
96 14
97 12
98 280
99 14
100 14
101 14
102 8
103 140
104 14
105 14
106 2
107 280
108 280
109 70
110 14
111 14
112 2
113 280
114 140
115 14
116 6
117 140
118 70
119 14
120 14
121 14
122 14
123 4
124 140
125 70
126 10
127 280
128 280
129 280
130 280
131 70
132 14
133 14
134 12
135 140
136 14
137 14
138 14
139 8
140 280
141 140
142 140
143 70
144 14
145 14
146 14
147 14
148 4
149 280
150 280
151 70
152 14
153 14
154 12
155 280
156 140
157 70
158 10
159 280
160 280
161 70
162 14
163 6
164 140
165 14
166 14
167 12
168 280
169 70
170 14
171 14
172 14
173 8
174 280
175 280
176 140
177 280
178 140
179 14
180 6
181 140
182 70
183 10
184 280
185 280
186 280
187 70
188 14
189 14
190 14
191 8
192 280
193 140
194 14
195 14
196 14
197 14
198 4
199 280
200 70
201 14
202 14
203 14
204 14
205 4
206 280
207 140
208 14
209 14
210 14
211 8
212 280
213 14
214 14
215 2
216 280
217 70
218 14
219 14
220 2
221 280
222 14
223 6
224 140
225 14
226 14
227 14
228 14
229 4
230 280
231 140
232 14
233 14
234 2
235 280
236 280
237 70
238 14
239 14
240 14
241 8
242 280
243 140
244 70
245 14
246 14
247 14
248 14
249 4
250 280
251 140
252 14
253 14
254 14
255 14
256 4
257 280
258 140
259 70
260 10
261 140
262 14
263 14
264 2
265 280
266 140
267 70
268 14
269 14
270 14
271 8
272 140
273 14
274 14
275 14
276 8
277 140
278 70
279 10
280 280
281 140
282 280
283 10
284 280
285 140
286 14
287 6
288 280
289 14
290 14
291 12
292 280
293 140
294 70
295 14
296 6
297 280
298 10
299 140
300 70
301 14
302 14
303 14
304 8
305 140
306 70
307 14
308 6
309 280
310 140
311 70
312 10
313 140
314 70
315 14
316 14
317 14
318 14
319 4
320 140
321 70
322 14
323 14
324 14
325 8
326 280
327 14
328 14
329 14
330 14
331 4
332 280
333 280
334 14
335 14
336 14
337 8
338 280
339 140
340 70
341 14
342 14
343 14
344 8
345 280
346 140
347 280
348 140
349 70
350 14
351 14
352 14
353 8
354 140
355 70
356 14
357 6
358 280
359 70
360 140
361 70
362 14
363 6
DEPOT_SECTION
1
-1
EOF