SDVRP instances/custom_instances/p02_4_splitx10_0.sol
362 -18 17 24 23 22 183 289 287 288 290 133 -19 20 21 7 9 13 8 12 10 11 277 276 278 -29 28 25 27 26 229 231 233 230 232 279 280 -30 32 34 33 35 36 31 139 140 -42 43 111 110 108 106 109 107 215 219 -44 247 246 245 242 241 129 132 131 130 128 -45 46 261 260 263 262 65 62 60 63 58 64 59 61 -105 103 102 104 321 320 319 322 324 323 164 165 166 163 179 178 176 177 122 120 117 116 119 121 118 310 311 -114 112 115 113 187 189 190 188 186 185 184 -125 123 124 152 153 361 360 359 362 76 74 75 73 77 72 78 297 296 -127 126 173 174 332 -137 138 136 135 134 39 37 41 40 38 155 154 156 157 54 55 57 56 351 348 -149 148 151 150 100 98 99 101 97 282 281 216 217 218 -160 161 162 158 93 91 92 96 94 95 194 192 191 196 197 195 193 -168 167 257 258 256 220 222 221 353 354 355 356 -171 169 172 170 69 66 67 71 68 70 312 317 316 315 314 318 255 251 254 252 253 250 249 -175 339 342 343 338 337 340 341 87 90 89 86 88 273 274 275 272 271 -180 182 181 349 347 346 350 352 307 304 305 306 -211 213 212 214 198 203 204 202 200 201 199 15 16 14 313 -228 225 224 226 223 227 79 84 82 83 85 81 80 293 295 292 294 291 357 358 259 -238 234 236 235 239 237 240 144 147 141 146 145 143 142 309 308 -248 244 243 52 49 50 53 51 47 48 1 6 5 2 3 4 328 329 326 325 327 330 -267 270 265 269 264 268 266 208 207 209 205 206 210 331 333 335 334 336 -300 299 298 303 301 302 286 283 284 285 159 345 344 0 





OBJ=
2331.433
BEST_KNOWN=
0.000